c This Formular is generated by mcnf
c
c    horn? no 
c    forced? no 
c    mixed sat? no 
c    clause length = 3 
c
p cnf 8  10
 4 -8 1 0
3 8 -5 0
-5 -8 -6 0
-2 7 -6 0
1 -3 -7 0
-3 -8 7 0
2 3 5 0
-6 3 8 0
2 -5 -7 0
8 -2 3 0
